CST02
Position Depot: Random
Horizon for Depot: Small
Position of customers: Cluster
Distribution of the demand: Small
Width of time windows: Tight
Distribution of the service: Large

VEHICLE 
NUMBER 	 CAPACITY 
 11 	 	 69 
 
CUSTOMER
CUST NO. 	 XCOORD.  	 YCOORD. 	 DEMAND 	 READY TIME 	 DUE DATE 	 SERVICE TIME 
 0 	 	 264 	 	 295 	 	 0 	 	 0 	 	 1895 	 	 0 
  1 	 	 620 	 	 343 	 	 9 	 	 1806 	 	 1867 	 	 187 
  2 	 	 648 	 	 551 	 	 7 	 	 447 	 	 535 	 	 122 
  3 	 	 358 	 	 548 	 	 7 	 	 629 	 	 710 	 	 161 
  4 	 	 574 	 	 364 	 	 10 	 	 1284 	 	 1469 	 	 106 
  5 	 	 153 	 	 28 	 	 7 	 	 1054 	 	 1216 	 	 137 
  6 	 	 38 	 	 776 	 	 5 	 	 1710 	 	 1895 	 	 122 
  7 	 	 567 	 	 964 	 	 8 	 	 752 	 	 807 	 	 115 
  8 	 	 497 	 	 368 	 	 8 	 	 1461 	 	 1656 	 	 200 
  9 	 	 153 	 	 747 	 	 5 	 	 846 	 	 968 	 	 118 
  10 	 	 709 	 	 660 	 	 5 	 	 1442 	 	 1619 	 	 185 
  11 	 	 662 	 	 480 	 	 6 	 	 412 	 	 482 	 	 125 
  12 	 	 612 	 	 955 	 	 9 	 	 1172 	 	 1313 	 	 186 
  13 	 	 580 	 	 387 	 	 5 	 	 441 	 	 519 	 	 145 
  14 	 	 676 	 	 301 	 	 9 	 	 337 	 	 453 	 	 136 
  15 	 	 605 	 	 1000 	 	 8 	 	 777 	 	 861 	 	 163 
  16 	 	 499 	 	 450 	 	 8 	 	 1413 	 	 1543 	 	 135 
  17 	 	 505 	 	 477 	 	 9 	 	 1382 	 	 1499 	 	 103 
  18 	 	 4 	 	 682 	 	 8 	 	 1164 	 	 1232 	 	 143 
  19 	 	 81 	 	 725 	 	 8 	 	 1699 	 	 1886 	 	 180 
  20 	 	 652 	 	 540 	 	 10 	 	 1557 	 	 1735 	 	 194 
  21 	 	 42 	 	 812 	 	 8 	 	 1217 	 	 1407 	 	 164 
  22 	 	 614 	 	 493 	 	 6 	 	 346 	 	 442 	 	 151 
  23 	 	 58 	 	 743 	 	 7 	 	 1042 	 	 1200 	 	 140 
  24 	 	 223 	 	 78 	 	 9 	 	 507 	 	 686 	 	 124 
  25 	 	 647 	 	 624 	 	 5 	 	 536 	 	 613 	 	 151 
  26 	 	 623 	 	 581 	 	 8 	 	 1794 	 	 1895 	 	 169 
  27 	 	 779 	 	 721 	 	 7 	 	 1037 	 	 1145 	 	 132 
  28 	 	 548 	 	 324 	 	 7 	 	 1068 	 	 1240 	 	 141 
  29 	 	 190 	 	 65 	 	 10 	 	 442 	 	 580 	 	 180 
  30 	 	 50 	 	 695 	 	 9 	 	 351 	 	 499 	 	 199 
  31 	 	 559 	 	 299 	 	 7 	 	 1603 	 	 1697 	 	 155 
  32 	 	 562 	 	 335 	 	 9 	 	 258 	 	 330 	 	 135 
  33 	 	 468 	 	 403 	 	 6 	 	 383 	 	 558 	 	 190 
  34 	 	 580 	 	 965 	 	 7 	 	 683 	 	 814 	 	 105 
  35 	 	 597 	 	 999 	 	 8 	 	 1301 	 	 1371 	 	 132 
  36 	 	 512 	 	 868 	 	 10 	 	 1293 	 	 1470 	 	 130 
  37 	 	 527 	 	 946 	 	 10 	 	 1172 	 	 1331 	 	 190 
  38 	 	 615 	 	 960 	 	 10 	 	 1570 	 	 1659 	 	 128 
  39 	 	 90 	 	 776 	 	 6 	 	 1619 	 	 1675 	 	 143 
  40 	 	 412 	 	 574 	 	 7 	 	 1744 	 	 1811 	 	 154 
  41 	 	 501 	 	 752 	 	 9 	 	 1560 	 	 1664 	 	 121 
  42 	 	 4 	 	 845 	 	 9 	 	 1375 	 	 1520 	 	 141 
  43 	 	 710 	 	 462 	 	 5 	 	 506 	 	 611 	 	 137 
  44 	 	 532 	 	 508 	 	 6 	 	 1701 	 	 1895 	 	 111 
  45 	 	 42 	 	 767 	 	 7 	 	 470 	 	 573 	 	 169 
  46 	 	 617 	 	 299 	 	 7 	 	 956 	 	 1151 	 	 167 
  47 	 	 556 	 	 925 	 	 10 	 	 928 	 	 1007 	 	 100 
  48 	 	 128 	 	 59 	 	 8 	 	 239 	 	 347 	 	 200 
  49 	 	 609 	 	 379 	 	 5 	 	 502 	 	 625 	 	 176 
  50 	 	 590 	 	 309 	 	 6 	 	 1564 	 	 1718 	 	 119 
  51 	 	 22 	 	 723 	 	 5 	 	 1525 	 	 1598 	 	 198 
  52 	 	 642 	 	 540 	 	 6 	 	 439 	 	 495 	 	 125 
  53 	 	 427 	 	 465 	 	 8 	 	 1554 	 	 1668 	 	 155 
  54 	 	 567 	 	 920 	 	 6 	 	 576 	 	 764 	 	 131 
  55 	 	 614 	 	 311 	 	 7 	 	 1736 	 	 1811 	 	 102 
  56 	 	 392 	 	 448 	 	 10 	 	 252 	 	 412 	 	 152 
  57 	 	 433 	 	 585 	 	 9 	 	 1435 	 	 1574 	 	 191 
  58 	 	 589 	 	 450 	 	 10 	 	 741 	 	 934 	 	 198 
  59 	 	 417 	 	 569 	 	 9 	 	 1136 	 	 1263 	 	 106 
  60 	 	 423 	 	 576 	 	 9 	 	 696 	 	 865 	 	 127 
  61 	 	 164 	 	 38 	 	 6 	 	 1319 	 	 1382 	 	 192 
  62 	 	 533 	 	 411 	 	 9 	 	 840 	 	 909 	 	 180 
  63 	 	 32 	 	 773 	 	 8 	 	 1541 	 	 1669 	 	 129 
  64 	 	 654 	 	 996 	 	 7 	 	 769 	 	 882 	 	 110 
  65 	 	 325 	 	 586 	 	 8 	 	 1388 	 	 1549 	 	 130 
  66 	 	 357 	 	 540 	 	 5 	 	 1384 	 	 1502 	 	 123 
  67 	 	 54 	 	 762 	 	 6 	 	 705 	 	 848 	 	 136 
  68 	 	 630 	 	 466 	 	 10 	 	 1121 	 	 1183 	 	 106 
  69 	 	 498 	 	 293 	 	 5 	 	 1072 	 	 1141 	 	 162 
  70 	 	 526 	 	 260 	 	 9 	 	 153 	 	 290 	 	 192 
  71 	 	 495 	 	 890 	 	 9 	 	 915 	 	 1018 	 	 163 
  72 	 	 18 	 	 773 	 	 7 	 	 1750 	 	 1895 	 	 193 
  73 	 	 24 	 	 761 	 	 7 	 	 802 	 	 968 	 	 141 
  74 	 	 608 	 	 569 	 	 9 	 	 1701 	 	 1885 	 	 125 
  75 	 	 1 	 	 833 	 	 10 	 	 470 	 	 658 	 	 111 
  76 	 	 125 	 	 76 	 	 7 	 	 105 	 	 285 	 	 103 
  77 	 	 402 	 	 413 	 	 7 	 	 585 	 	 743 	 	 152 
  78 	 	 189 	 	 100 	 	 8 	 	 1124 	 	 1266 	 	 103 
  79 	 	 706 	 	 366 	 	 7 	 	 1432 	 	 1520 	 	 102 
  80 	 	 673 	 	 521 	 	 10 	 	 1278 	 	 1371 	 	 132 
  81 	 	 32 	 	 637 	 	 7 	 	 1771 	 	 1895 	 	 127 
  82 	 	 596 	 	 647 	 	 9 	 	 1828 	 	 1892 	 	 170 
  83 	 	 358 	 	 378 	 	 5 	 	 24 	 	 147 	 	 103 
  84 	 	 495 	 	 602 	 	 7 	 	 612 	 	 684 	 	 122 
  85 	 	 481 	 	 484 	 	 6 	 	 1162 	 	 1212 	 	 173 
  86 	 	 609 	 	 306 	 	 10 	 	 1665 	 	 1787 	 	 125 
  87 	 	 686 	 	 356 	 	 6 	 	 372 	 	 469 	 	 101 
  88 	 	 61 	 	 793 	 	 7 	 	 504 	 	 591 	 	 156 
  89 	 	 225 	 	 53 	 	 9 	 	 194 	 	 331 	 	 174 
  90 	 	 559 	 	 971 	 	 5 	 	 847 	 	 983 	 	 197 
  91 	 	 605 	 	 334 	 	 10 	 	 701 	 	 882 	 	 123 
  92 	 	 627 	 	 361 	 	 8 	 	 777 	 	 954 	 	 131 
  93 	 	 770 	 	 359 	 	 6 	 	 1397 	 	 1518 	 	 102 
  94 	 	 661 	 	 477 	 	 8 	 	 1147 	 	 1223 	 	 117 
  95 	 	 454 	 	 571 	 	 9 	 	 1330 	 	 1463 	 	 129 
  96 	 	 549 	 	 337 	 	 5 	 	 1797 	 	 1895 	 	 107 
  97 	 	 593 	 	 546 	 	 10 	 	 841 	 	 919 	 	 135 
  98 	 	 88 	 	 745 	 	 6 	 	 1454 	 	 1563 	 	 156 
  99 	 	 565 	 	 362 	 	 5 	 	 1683 	 	 1816 	 	 128 
  100 	 	 58 	 	 772 	 	 9 	 	 394 	 	 571 	 	 100 
 